NAME : input100_1.txt .out.tour
COMMENT : Tour for input100_1.txt .tsp (Length 1071.51)
TYPE : TOUR
DIMENSION : 100
TOUR_SECTION
1
94
62
85
95
25
83
52
91
56
3
8
68
43
71
14
31
79
86
60
100
90
19
26
13
58
96
87
11
49
7
21
16
54
34
78
39
82
84
22
59
89
32
99
93
5
33
55
64
67
40
9
6
42
70
63
46
65
76
15
92
38
53
66
35
50
80
12
77
44
28
18
97
88
57
73
48
47
51
69
2
17
23
4
81
36
30
27
20
10
61
74
37
24
98
75
45
72
41
29
1
